
Log started (V11.0.0) Tue May 13 17:39:46 2008

Tried aggregator 1 time.
Reduced MIP has 120 rows, 2001 columns, and 4020 nonzeros.
Presolve time =    0.01 sec.
Clique table members: 100.
MIP emphasis: balance optimality and feasibility.
MIP search method: dynamic search.
Parallel mode: none, using 1 thread.
Root relaxation solution time =    0.05 sec.

        Nodes                                         Cuts/
   Node  Left     Objective  IInf  Best Integer     Best Node    ItCnt     Gap

*     0+    0                         4047.0000      161.6449      264   96.01%
*     0+    0                          199.0000      161.6449      264   18.77%
      0     0      162.8814    38      199.0000      Fract: 6      285   18.15%
*     0+    0                          198.0000      162.8814      285   17.74%
      0     0      167.5740    45      198.0000      Cuts: 16      414   15.37%
*     0+    0                          184.0000      167.5740      414    8.93%
      0     0      167.8334    55      184.0000      Cuts: 12      484    8.79%
      0     0      169.4813    40      184.0000      Cuts: 11      592    7.89%
      0     0      169.5947    46      184.0000       Cuts: 3      628    7.83%
*     0+    0                          180.0000      169.5947      628    5.78%
      0     0      169.8299    51      180.0000    MIRcuts: 2      648    5.65%
      0     0      170.6934    47      180.0000       Cuts: 7      696    5.17%
      0     0      172.2796    41      180.0000       Cuts: 6      724    4.29%
      0     0      172.2796    45      180.0000    MIRcuts: 1      725    4.29%
*     0+    0                          179.0000      172.2796      725    3.75%
      0     0      172.3515    45      179.0000    MIRcuts: 1      730    3.71%
      0     0      172.6948    41      179.0000       Cuts: 3      742    3.52%
      0     0      172.7222    48      179.0000       Cuts: 4      753    3.51%
      0     0      172.7292    55      179.0000       Cuts: 4      761    3.50%
*     0+    0                          177.0000      172.7292      761    2.41%
      0     2      173.0000    54      177.0000      172.7292      761    2.41%
    100    77        cutoff            177.0000      173.0000     2565    2.26%
    200   109      175.0000    32      177.0000      173.0000     4461    2.26%
    300   176      174.0000    20      177.0000      173.0000     5834    2.26%
    400   235      175.0000    13      177.0000      173.0000     7324    2.26%
*   471+  168                          176.0000      174.8897     8923    0.63%

Cover cuts applied:  17
Mixed integer rounding cuts applied:  22

Solution pool: 8 solutions saved.

MIP - Integer optimal solution:  Objective = 1.7600000000e+002
Solution time =    4.00 sec.  Iterations = 8923  Nodes = 471 (168)


Incumbent solution
Variable Name           Solution Value
Cmax                        176.000000
X_1_12                        1.000000
X_2_13                        1.000000
X_3_13                        1.000000
X_4_16                        1.000000
X_5_16                        1.000000
X_6_16                        1.000000
X_7_20                        1.000000
X_8_19                        1.000000
X_9_15                        1.000000
X_10_8                        1.000000
X_11_16                       1.000000
X_12_18                       1.000000
X_13_15                       1.000000
X_14_19                       1.000000
X_15_13                       1.000000
X_16_7                        1.000000
X_17_18                       1.000000
X_18_2                        1.000000
X_19_20                       1.000000
X_20_7                        1.000000
X_21_1                        1.000000
X_22_13                       1.000000
X_23_13                       1.000000
X_24_15                       1.000000
X_25_18                       1.000000
X_26_12                       1.000000
X_27_15                       1.000000
X_28_12                       1.000000
X_29_15                       1.000000
X_30_13                       1.000000
X_31_12                       1.000000
X_32_13                       1.000000
X_33_13                       1.000000
X_34_13                       1.000000
X_35_8                        1.000000
X_36_18                       1.000000
X_37_15                       1.000000
X_38_16                       1.000000
X_39_15                       1.000000
X_40_3                        1.000000
X_41_16                       1.000000
X_42_16                       1.000000
X_43_16                       1.000000
X_44_13                       1.000000
X_45_9                        1.000000
X_46_18                       1.000000
X_47_13                       1.000000
X_48_16                       1.000000
X_49_5                        1.000000
X_50_10                       1.000000
X_51_4                        1.000000
X_52_18                       1.000000
X_53_19                       1.000000
X_54_5                        1.000000
X_55_13                       1.000000
X_56_13                       1.000000
X_57_11                       1.000000
X_58_4                        1.000000
X_59_13                       1.000000
X_60_10                       1.000000
X_61_6                        1.000000
X_62_12                       1.000000
X_63_2                        1.000000
X_64_17                       1.000000
X_65_16                       1.000000
X_66_20                       1.000000
X_67_12                       1.000000
X_68_13                       1.000000
X_69_3                        1.000000
X_70_18                       1.000000
X_71_13                       1.000000
X_72_15                       1.000000
X_73_9                        1.000000
X_74_9                        1.000000
X_75_4                        1.000000
X_76_2                        1.000000
X_77_16                       1.000000
X_78_15                       1.000000
X_79_17                       1.000000
X_80_6                        1.000000
X_81_20                       1.000000
X_82_15                       1.000000
X_83_13                       1.000000
X_84_14                       1.000000
X_85_15                       1.000000
X_86_3                        1.000000
X_87_15                       1.000000
X_88_15                       1.000000
X_89_20                       1.000000
X_90_2                        1.000000
X_91_15                       1.000000
X_92_8                        1.000000
X_93_15                       1.000000
X_94_18                       1.000000
X_95_8                        1.000000
X_96_13                       1.000000
X_97_15                       1.000000
X_98_18                       1.000000
X_99_13                       1.000000
X_100_15                      1.000000
All other variables in the range 1-2001 are 0.
